###############################################################################
# MD simulation for NN water
###############################################################################

###############################################################################
# VARIABLES
###############################################################################
clear
# Configuration files
variable cfgFile         string "small_gold_shell_ligands_solvent_mace_mp_opt.data"
# Timesteps
variable numSteps1       equal  30000
variable numSteps2       equal  30000
variable dt              equal  0.001
# Masses
variable mass_H          equal  1.00794
variable mass_C          equal  12.01
variable mass_O          equal  15.9994
variable mass_Na         equal  22.9897
variable mass_Cu         equal  63.546
variable mass_Au         equal  196.9666

###############################################################################
# GENERAL SETUP
###############################################################################
units         metal
atom_style    atomic
atom_modify   map yes
newton        on

boundary p p p
read_data ${cfgFile}
#specorder = H C O Na Cu Au
mass 1 ${mass_H}
mass 2 ${mass_C}
mass 3 ${mass_O}
mass 4 ${mass_Na}
mass 5 ${mass_Cu}
mass 6 ${mass_Au}
#timestep ${dt}
#thermo 1

###############################################################################
# MACE
###############################################################################
pair_style mace no_domain_decomposition
pair_coeff * * mace_agnesi_small.model-lammps.pt H C O Na Cu Au

###############################################################################
# INTEGRATOR
###############################################################################
#fix             1 all box/relax tri 0.0 # relaxed cell
#fix INT all nve
#
# Set initial velocities
velocity    all create 300.0 12345 mom yes dist gaussian

# Thermostat
fix         nvt1 all nvt temp 300.0 300.0 0.1

# Thermodynamic output
thermo      100
thermo_style custom step temp pe ke etotal

# Dump output
dump        1 all atom 100 trajectory.lammpstrj
dump_modify 1 sort id

###############################################################################
# SIMULATION PART 1: 30 ps at 300 K
###############################################################################
timestep ${dt}
run ${numSteps1}

write_data after_30ps_300K.data

# Unfix the first thermostat
unfix       nvt1

###############################################################################
# SIMULATION PART 2: 30 ps at 400 K
###############################################################################
# Thermostat for 400 K
fix         nvt2 all nvt temp 400.0 400.0 0.1

# Run for 50 ps at 400 K
run         ${numSteps1}

# Clean up
unfix       nvt2

write_data after_30ps_400K.data
#
###############################################################################
# SIMULATION PART 3: 30 ps at 500 K
###############################################################################
# Thermostat for 500 K
fix         nvt3 all nvt temp 500.0 500.0 0.1

# Run for 30 ps at 500 K
run         ${numSteps1}

# Clean up
unfix       nvt3

write_data after_30ps_500K.data
#
###############################################################################
# SIMULATION PART 4: 30 ps at 600 K
###############################################################################
# Thermostat for 600 K
fix         nvt4 all nvt temp 600.0 600.0 0.1

# Run for 50 ps at 600 K
run         ${numSteps1}

# Clean up
unfix       nvt4

write_data after_30ps_600K.data
